NAME: dataset14
TYPE: TSP
COMMENT: Archivo dataset14
DIMENSION: 14
NODE_COORD_SECTION
1 568.0357666016 163.3963012695
2 409.809753418 23.7553119659
3 337.3173522949 453.3291015625
4 611.9711303711 83.4928131104
5 836.2023925781 913.3438720703
6 144.256652832 603.4790039062
7 605.2521972656 750.6791381836
8 938.0251464844 239.8641052246
9 74.5588531494 121.4315261841
10 544.0962524414 85.9348754883
11 563.2185058594 127.3781051636
12 953.7553710938 687.7789916992
13 843.0972290039 215.3525390625
14 352.877746582 81.9069137573
EOF
